NAME : 20_2_08.41508.tour
COMMENT : Cost = 0_41508
COMMENT : Found by LKH [Keld Helsgaun] Thu Sep 14 11:07:25 2017
TYPE : TOUR
DIMENSION : 22
TOUR_SECTION
1
3
22
9
15
16
17
12
19
13
11
14
10
20
4
21
7
5
18
8
6
2
-1
EOF
